TYPE : Vertex Cover
DIMENSION: 37
EDGE_DATA_SECTION:
0 1
0 8
0 15
0 19
0 20
0 25
0 31
1 20
1 21
1 34
2 7
2 16
2 18
3 10
3 17
3 22
3 28
3 32
4 14
4 23
5 13
5 36
6 11
7 16
7 17
8 23
9 24
9 28
9 35
10 24
10 31
11 27
12 14
12 30
13 18
13 24
13 26
13 28
14 17
14 19
14 23
14 24
14 28
15 24
15 25
17 21
17 35
18 21
18 25
19 24
19 27
19 30
19 35
20 31
20 34
21 28
22 25
22 28
22 29
22 30
23 27
23 36
25 30
27 30
33 36
34 35
-1
VERTEX_DEGREE:
7.0 4.0 3.0 5.0 2.0 2.0 1.0 3.0 2.0 3.0 3.0 2.0 2.0 5.0 7.0 3.0 2.0 5.0 4.0 6.0 4.0 4.0 5.0 5.0 6.0 5.0 1.0 4.0 6.0 1.0 5.0 3.0 1.0 1.0 3.0 4.0 3.0
VERTEX_COVER:
0 1 2 3 7 9 10 11 13 14 15 19 20 21 22 23 25 30 35 36
EOF
